c Result of efficient AIG-to-CNF conversion using package CNF
p cnf 101 437
-2 3 24 25 38 0
-2 3 -24 -25 38 0
2 -38 0
2 -24 25 0
2 -3 0
2 24 -25 0
-3 -4 -9 0
-3 4 9 0
3 4 -9 0
3 -4 9 0
-4 5 6 0
-4 -5 -6 0
4 -5 6 0
4 5 -6 0
5 97 -99 0
-5 -97 0
-5 99 0
-6 -7 -8 0
-6 7 8 0
6 7 -8 0
6 -7 8 0
7 -97 -98 0
-7 97 0
-7 98 0
8 -99 -100 0
-8 99 0
-8 100 0
9 10 -21 0
9 -10 -20 21 0
9 20 -21 0
-9 20 21 0
-9 -10 -20 -21 0
-9 10 21 0
-10 11 14 0
-10 -11 -14 0
10 -11 14 0
10 11 -14 0
11 -99 -12 0
-11 99 0
-11 12 0
-12 13 0
12 -13 0
13 -97 99 0
-13 97 0
-13 -99 0
-14 -15 -19 0
-14 15 19 0
14 15 -19 0
14 -15 19 0
15 16 -18 0
15 -98 -99 16 0
-15 -16 0
-15 99 18 0
-15 98 18 0
16 -98 -100 -17 0
-16 98 0
-16 100 0
-16 17 0
17 -97 -99 0
-17 97 0
-17 99 0
18 -97 -100 0
-18 97 0
-18 100 0
19 -97 -99 0
-19 97 0
-19 99 0
-20 -97 -99 0
-20 97 99 0
20 97 -99 0
20 -97 99 0
21 -22 -23 0
-21 22 0
-21 23 0
22 -99 12 0
22 99 -12 0
-22 99 12 0
-22 -99 -12 0
-23 -97 -98 -100 0
-23 -97 98 100 0
-23 97 98 -99 -100 0
-23 98 99 100 0
-23 -98 99 -100 0
-23 97 -98 -99 100 0
23 98 99 -100 0
23 -97 -98 100 0
23 97 -98 -99 -100 0
23 -97 98 -100 0
23 -98 99 100 0
23 97 98 -99 100 0
24 97 -99 0
24 98 -99 -100 0
-24 99 0
-24 -97 100 0
-24 -97 -98 0
-25 20 26 27 0
-25 -26 -27 31 0
-25 -20 -26 27 -31 0
-25 20 -26 -27 0
-25 26 27 31 0
-25 -20 26 -27 -31 0
25 20 26 -27 0
25 20 -26 27 0
25 -20 26 27 -31 0
25 26 -27 31 0
25 -26 27 31 0
25 -20 -26 -27 -31 0
26 -10 -20 -21 0
-26 21 0
-26 20 0
-26 10 0
-27 23 28 0
-27 28 -30 0
-27 10 28 0
27 -28 0
27 -10 -23 30 0
28 10 -22 -29 0
28 -22 23 -29 0
-28 22 0
-28 29 0
-28 -10 -23 0
-29 -97 -98 0
-29 -97 100 0
-29 -98 100 0
-29 -98 99 0
-29 99 100 0
29 98 -100 0
29 97 -99 -100 0
29 97 98 -99 0
30 -22 -29 0
-30 22 0
-30 29 0
-31 32 34 0
-31 -32 -34 0
31 -32 34 0
31 32 -34 0
-32 -99 33 0
-32 100 33 0
32 -33 0
32 99 -100 0
33 -11 -14 0
-33 11 0
-33 14 0
-34 35 36 0
-34 -35 -36 0
34 -35 36 0
34 35 -36 0
35 -98 -100 17 0
-35 98 0
-35 100 0
-35 -17 0
-36 -97 37 0
-36 98 37 0
36 -37 0
36 97 -98 0
37 -97 98 -99 -100 0
37 -97 -98 -99 100 0
-37 99 0
-37 -98 -100 0
-37 97 0
-37 98 100 0
-38 39 76 77 89 0
-38 39 -76 -77 -89 0
38 76 -77 0
38 77 -89 0
38 -39 0
38 -76 89 0
-39 -40 -42 60 62 0
-39 40 42 60 62 0
-39 -40 -42 -60 -62 0
-39 40 42 -60 -62 0
39 -40 42 0
39 40 -42 0
39 -60 62 0
39 60 -62 0
-40 24 41 0
-40 -24 -41 0
40 -24 41 0
40 24 -41 0
-41 -98 -100 0
-41 98 100 0
41 98 -100 0
41 -98 100 0
-42 -28 43 59 0
-42 28 -43 -46 0
-42 -43 -59 0
-42 43 46 59 0
42 28 43 -46 0
42 -28 -43 59 0
42 43 -59 0
42 -43 46 59 0
-43 44 45 0
43 -44 0
43 -45 0
44 -20 -27 -31 0
-44 20 0
-44 31 0
-44 27 0
45 -26 -27 31 0
45 20 -26 -27 0
45 -20 -26 27 -31 0
-45 20 27 0
-45 27 31 0
-45 26 0
-45 -20 -27 -31 0
-46 28 47 58 0
46 -28 0
46 -58 0
46 -47 0
47 20 -48 0
47 -48 50 0
-47 48 0
-47 -20 -50 0
48 23 -49 0
48 -23 -31 49 0
48 31 -49 0
-48 31 49 0
-48 -23 -31 -49 0
-48 23 49 0
49 -10 -29 0
-49 10 0
-49 29 0
50 -8 51 55 0
50 -8 -51 -55 0
50 8 -51 55 0
50 8 51 -55 0
-50 -8 51 -55 0
-50 -8 -51 55 0
-50 8 -51 -55 0
-50 8 51 55 0
51 52 -54 0
51 -52 54 0
-51 -52 -54 0
-51 52 54 0
-52 53 0
52 -53 0
53 97 -98 -100 0
-53 100 0
-53 98 0
-53 -97 0
54 -7 16 0
-54 7 0
-54 -16 0
-55 56 0
55 -56 0
56 -57 -34 0
56 -33 -34 0
-56 34 0
-56 57 33 0
57 99 -100 0
-57 -99 0
-57 100 0
58 -20 48 -50 0
-58 50 0
-58 -48 0
-58 20 0
59 20 -28 48 0
59 -28 48 50 0
59 -20 -28 -48 -50 0
-59 20 -48 0
-59 -48 50 0
-59 28 0
-59 -20 48 -50 0
-60 -6 -61 0
-60 6 61 0
60 6 -61 0
60 -6 61 0
61 98 -100 0
61 -100 -24 0
61 98 -24 0
-61 100 24 0
-61 -98 100 0
-61 -98 24 0
-62 -63 -67 -75 0
-62 63 -65 67 0
-62 63 75 0
-62 -63 65 -75 0
62 63 65 -75 0
62 -63 -65 67 0
62 -63 75 0
62 63 -67 -75 0
63 -46 64 0
-63 46 0
-63 -64 0
64 -43 -59 0
64 28 -43 -46 0
-64 43 0
-64 -28 59 0
-64 46 59 0
-65 66 58 0
65 -66 0
65 -58 0
66 -23 -31 49 0
-66 23 0
-66 -49 0
-66 31 0
67 -65 68 74 0
-67 65 0
-67 -74 0
-67 -68 0
68 20 -69 0
68 -69 71 0
-68 69 0
-68 -20 -71 0
69 23 -70 0
69 50 -70 0
69 -23 -50 70 0
-69 50 70 0
-69 -23 -50 -70 0
-69 23 70 0
70 -29 -31 0
-70 29 0
-70 31 0
-71 72 73 0
-71 -72 -73 0
71 -72 73 0
71 72 -73 0
-72 16 52 0
-72 7 16 0
-72 7 52 0
72 -7 -16 0
72 -16 -52 0
72 -7 -52 0
-73 51 55 0
-73 8 51 0
-73 8 55 0
73 -8 -51 0
73 -51 -55 0
73 -8 -55 0
74 -20 69 -71 0
-74 20 0
-74 71 0
-74 -69 0
-75 65 69 71 0
-75 20 65 69 0
-75 -20 65 -69 -71 0
75 20 -69 0
75 -69 71 0
75 -65 0
75 -20 69 -71 0
-76 -97 -98 0
-76 -97 100 0
-76 -98 100 0
-76 -98 99 0
-76 99 100 0
76 98 -100 0
76 97 -99 -100 0
76 97 98 -99 0
-77 -78 -82 -88 0
-77 78 -80 82 0
-77 78 88 0
-77 -78 80 -88 0
77 78 80 -88 0
77 -78 -80 82 0
77 -78 88 0
77 78 -82 -88 0
78 67 -79 0
-78 -67 0
-78 79 0
-79 63 75 0
-79 63 -65 67 0
79 -63 0
79 65 -75 0
79 -67 -75 0
-80 81 74 0
80 -81 0
80 -74 0
81 -23 -50 70 0
-81 23 0
-81 50 0
-81 -70 0
82 -80 83 87 0
-82 80 0
-82 -87 0
-82 -83 0
83 20 -84 0
83 -84 86 0
-83 84 0
-83 -20 -86 0
84 23 -85 0
84 -23 -71 85 0
84 71 -85 0
-84 71 85 0
-84 -23 -71 -85 0
-84 23 85 0
85 -29 -50 0
-85 29 0
-85 50 0
86 -72 -73 0
-86 72 0
-86 73 0
87 -20 84 -86 0
-87 86 0
-87 -84 0
-87 20 0
-88 20 80 84 0
-88 80 84 86 0
-88 -20 80 -84 -86 0
88 20 -84 0
88 -84 86 0
88 -80 0
88 -20 84 -86 0
-89 -90 -92 94 0
-89 -90 92 -94 0
-89 90 92 94 0
-89 90 -92 -94 0
89 -90 -92 -94 0
89 -90 92 94 0
89 90 92 -94 0
89 90 -92 94 0
90 82 -91 0
-90 -82 0
-90 91 0
-91 78 88 0
-91 78 -80 82 0
91 -78 0
91 80 -88 0
91 -82 -88 0
-92 93 87 0
92 -93 0
92 -87 0
93 -23 -71 85 0
-93 23 0
-93 -85 0
-93 71 0
-94 -95 -96 0
-94 95 96 0
94 95 -96 0
94 -95 96 0
95 -29 -71 0
-95 29 0
-95 71 0
96 -23 -86 0
-96 23 0
-96 86 0
-101 0
2 0

